25	50	3
13	20
2	19
1	20
4	14
1	17
5	19
2	23
10	16
8	18
5	20
0	19
1	11
12	14
5	8
7	21
5	22
7	13
9	16
14	17
13	23
7	10
15	18
4	10
11	16
1	12
4	23
6	17
15	16
21	22
6	15
11	14
0	7
17	24
3	13
2	9
2	10
2	17
9	17
11	23
5	9
3	24
7	24
4	5
3	19
12	16
11	22
0	8
6	24
5	14
21	23
